!r2scan-3c Opt D4 Freq
%pal
 nprocs 48
end
* xyzfile 0 1 product.xyz

