!r2scan-3c Opt D4 Freq
%pal
 nprocs 8
end
* xyzfile 0 1 inp.xyz

