!r2scan-3c Opt D4 Freq
%pal
 nprocs XXXX
end
* xyzfile 0 1 XXXX

